language ESSENCE' 1.0
letting lastdx=92
letting cage be [
[20,1,1,2,1,0,0, 0,0, 0,0],
[37,6,1,6,2,5,2,4,2,0,0],
[39,12,9,11,9,11,10,10,10,10,11],
[5,2,5,0,0, 0,0, 0,0, 0,0],
[12,2,7,0,0, 0,0, 0,0, 0,0],
[57,15,13,15,12,14,12,13,12,12,12],
[33,3,7,3,6,2,6,1,6,1,5],
[46,12,15,12,14,11,14,11,13,12,13],
[14,13,5,14,5,0,0, 0,0, 0,0],
[7,8,12,0,0, 0,0, 0,0, 0,0],
[26,12,5,12,4,0,0, 0,0, 0,0],
[27,2,10,3,10,4,10,4,11,0,0],
[21,9,1,8,1,7,1,0,0, 0,0],
[38,3,13,3,12,2,12,1,12,0,0],
[41,11,5,10,5,10,4,9,4,0,0],
[46,14,6,13,6,12,6,11,6,10,6],
[39,5,4,5,5,5,6,4,6,0,0],
[37,4,14,4,15,3,15,2,15,1,15],
[15,7,15,0,0, 0,0, 0,0, 0,0],
[20,8,14,7,14,6,14,6,15,0,0],
[9,2,3,0,0, 0,0, 0,0, 0,0],
[44,12,10,12,11,11,11,11,12,10,12],
[12,3,5,4,5,0,0, 0,0, 0,0],
[39,16,9,16,8,16,7,15,7,0,0],
[6,9,9,0,0, 0,0, 0,0, 0,0],
[19,4,1,5,1,0,0, 0,0, 0,0],
[9,8,6,8,5,0,0, 0,0, 0,0],
[14,6,5,0,0, 0,0, 0,0, 0,0],
[13,15,1,14,1,0,0, 0,0, 0,0],
[21,10,14,10,13,9,13,0,0, 0,0],
[20,13,1,13,2,0,0, 0,0, 0,0],
[11,7,16,0,0, 0,0, 0,0, 0,0],
[28,14,11,15,11,16,11,16,10,0,0],
[7,15,9,0,0, 0,0, 0,0, 0,0],
[18,7,4,7,5,7,6,0,0, 0,0],
[3,8,8,0,0, 0,0, 0,0, 0,0],
[11,16,14,0,0, 0,0, 0,0, 0,0],
[12,11,1,0,0, 0,0, 0,0, 0,0],
[35,13,4,13,3,14,3,14,4,0,0],
[13,16,4,16,3,0,0, 0,0, 0,0],
[20,14,10,15,10,0,0, 0,0, 0,0],
[30,15,3,15,2,14,2,0,0, 0,0],
[9,1,7,0,0, 0,0, 0,0, 0,0],
[1,2,8,0,0, 0,0, 0,0, 0,0],
[11,10,15,0,0, 0,0, 0,0, 0,0],
[16,8,13,0,0, 0,0, 0,0, 0,0],
[38,13,8,12,8,12,7,13,7,14,7],
[13,5,15,5,16,6,16,0,0, 0,0],
[35,1,11,2,11,3,11,0,0, 0,0],
[44,9,8,9,7,8,7,7,7,7,8],
[1,1,16,0,0, 0,0, 0,0, 0,0],
[4,5,7,0,0, 0,0, 0,0, 0,0],
[13,5,14,0,0, 0,0, 0,0, 0,0],
[21,1,9,1,8,1,10,0,0, 0,0],
[37,14,9,13,9,13,10,13,11,0,0],
[28,9,6,9,5,0,0, 0,0, 0,0],
[15,2,2,0,0, 0,0, 0,0, 0,0],
[18,10,9,10,8,10,7,0,0, 0,0],
[12,16,1,16,2,0,0, 0,0, 0,0],
[23,15,14,14,14,14,15,14,16,13,16],
[13,6,9,6,8,0,0, 0,0, 0,0],
[15,3,1,3,2,3,3,0,0, 0,0],
[32,5,12,5,13,4,13,4,12,0,0],
[2,3,4,0,0, 0,0, 0,0, 0,0],
[22,6,3,6,4,0,0, 0,0, 0,0],
[5,12,1,0,0, 0,0, 0,0, 0,0],
[35,3,16,2,16,4,16,0,0, 0,0],
[4,9,12,0,0, 0,0, 0,0, 0,0],
[9,15,6,0,0, 0,0, 0,0, 0,0],
[51,2,14,3,14,1,14,1,13,2,13],
[14,16,13,16,12,0,0, 0,0, 0,0],
[38,5,10,5,11,6,11,6,12,7,11],
[39,2,4,1,4,1,3,1,2,0,0],
[18,11,3,11,4,11,2,0,0, 0,0],
[13,8,9,0,0, 0,0, 0,0, 0,0],
[13,12,16,0,0, 0,0, 0,0, 0,0],
[24,6,6,6,7,0,0, 0,0, 0,0],
[30,6,10,7,10,7,9,0,0, 0,0],
[11,13,13,14,13,0,0, 0,0, 0,0],
[3,5,3,0,0, 0,0, 0,0, 0,0],
[15,4,3,4,4,0,0, 0,0, 0,0],
[28,4,9,5,9,5,8,0,0, 0,0],
[27,7,2,8,2,9,2,0,0, 0,0],
[59,7,3,8,3,8,4,9,3,10,3],
[9,8,15,0,0, 0,0, 0,0, 0,0],
[10,10,1,10,2,0,0, 0,0, 0,0],
[28,10,16,11,16,11,15,0,0, 0,0],
[22,11,7,11,8,0,0, 0,0, 0,0],
[13,12,2,12,3,0,0, 0,0, 0,0],
[20,13,14,13,15,0,0, 0,0, 0,0],
[15,14,8,15,8,0,0, 0,0, 0,0],
[32,15,4,15,5,16,5,16,6,0,0],
[44,15,15,15,16,16,16,16,15,0,0]
]
